decision_x1=[0,7];
decision_x2=[0,7];
decision_x3=[0,7];
decision_x4=[0,7];
decision_x5=[0,7];
decision_x6=[0,7];
decision_x7=[0,7];
decision_x8=[0,7];
decision_x9=[0,7];
decision_x10=[0,7];
decision_x11=[0,7];
decision_x12=[0,7];
decision_x13=[0,7];
decision_x14=[0,7];
decision_x15=[0,7];
decision_x16=[0,7];
decision_x17=[0,7];
decision_x18=[0,7];
random_y1=[0,7];
random_y2=[0,7];
random_y3=[0,7];
random_y4=[0,7];
random_y5=[0,7];
random_y6=[0,7];
random_y7=[0,7];
random_y8=[0,7];
constraint_x2_x1=[
0,0,7.4|
0,1,3.7|
0,2,0.93|
0,3,9.1|
0,4,3.3|
0,5,9.6|
0,6,6.1|
0,7,4.7|
1,0,1.7|
1,1,0.49|
1,2,3|
1,3,0.75|
1,4,0.91|
1,5,3.2|
1,6,3|
1,7,7.5|
2,0,3.1|
2,1,6.6|
2,2,7.7|
2,3,10|
2,4,5.3|
2,5,9.5|
2,6,6.2|
2,7,6.6|
3,0,0.18|
3,1,6.9|
3,2,3.6|
3,3,9.3|
3,4,7.7|
3,5,9.8|
3,6,8.9|
3,7,1.3|
4,0,9|
4,1,7.9|
4,2,3.3|
4,3,7.2|
4,4,1.7|
4,5,2|
4,6,5.4|
4,7,4.8|
5,0,2|
5,1,0.044|
5,2,4.4|
5,3,7.5|
5,4,4.7|
5,5,8.4|
5,6,2.1|
5,7,2.7|
6,0,9.9|
6,1,5|
6,2,0.64|
6,3,7|
6,4,7|
6,5,4.6|
6,6,9.6|
6,7,7|
7,0,9.5|
7,1,3.6|
7,2,4.1|
7,3,0.2|
7,4,3.5|
7,5,2.4|
7,6,7.1|
7,7,6.5|
];
constraint_x3_x2=[
0,0,3.5|
0,1,0.88|
0,2,1|
0,3,4|
0,4,2.2|
0,5,7|
0,6,3.9|
0,7,8.1|
1,0,4.9|
1,1,6.3|
1,2,2.9|
1,3,2.7|
1,4,3.1|
1,5,0.74|
1,6,6.1|
1,7,6.9|
2,0,0.9|
2,1,4.2|
2,2,3.8|
2,3,5.5|
2,4,5.8|
2,5,2.9|
2,6,7.6|
2,7,8.1|
3,0,3.5|
3,1,1.2|
3,2,1.4|
3,3,5|
3,4,0.074|
3,5,2.3|
3,6,1.4|
3,7,3.6|
4,0,4.6|
4,1,4|
4,2,3.4|
4,3,6|
4,4,7.2|
4,5,4|
4,6,5.9|
4,7,3|
5,0,7.2|
5,1,4.2|
5,2,8.5|
5,3,9.1|
5,4,1.4|
5,5,8.4|
5,6,5.4|
5,7,8.7|
6,0,4.3|
6,1,3.3|
6,2,1.1|
6,3,6.7|
6,4,10|
6,5,7.5|
6,6,10|
6,7,4.8|
7,0,0.27|
7,1,1.9|
7,2,5.3|
7,3,4|
7,4,7.8|
7,5,4.7|
7,6,3.1|
7,7,6.5|
];
constraint_x4_x3=[
0,0,9.6|
0,1,2.8|
0,2,9.6|
0,3,0.074|
0,4,7.1|
0,5,5.8|
0,6,5.4|
0,7,5.5|
1,0,4.4|
1,1,2.3|
1,2,6.1|
1,3,0.91|
1,4,9.6|
1,5,5|
1,6,8.2|
1,7,7|
2,0,2.5|
2,1,4.8|
2,2,7|
2,3,3.8|
2,4,7.3|
2,5,8.2|
2,6,5.5|
2,7,6.8|
3,0,4.4|
3,1,9.9|
3,2,1.3|
3,3,1.6|
3,4,0.85|
3,5,7.6|
3,6,2.3|
3,7,8.8|
4,0,4.1|
4,1,3|
4,2,5.7|
4,3,7.8|
4,4,0.39|
4,5,5|
4,6,3.4|
4,7,4.6|
5,0,8.4|
5,1,9.5|
5,2,4.3|
5,3,9.5|
5,4,1.7|
5,5,2.5|
5,6,6.2|
5,7,2.8|
6,0,8.9|
6,1,2.5|
6,2,0.31|
6,3,4.3|
6,4,4|
6,5,5|
6,6,0.045|
6,7,6.6|
7,0,6.9|
7,1,5.7|
7,2,2.4|
7,3,5|
7,4,5.9|
7,5,8.9|
7,6,3|
7,7,3.6|
];
constraint_x5_x1=[
0,0,8.1|
0,1,6.7|
0,2,2.1|
0,3,6.5|
0,4,5.1|
0,5,8.2|
0,6,7.3|
0,7,8.4|
1,0,5.7|
1,1,2.3|
1,2,5.1|
1,3,7.2|
1,4,3.9|
1,5,4.3|
1,6,9.8|
1,7,4.9|
2,0,4.6|
2,1,1.7|
2,2,5.3|
2,3,3.7|
2,4,5.4|
2,5,5.4|
2,6,5.4|
2,7,2.7|
3,0,0.33|
3,1,1.1|
3,2,9.3|
3,3,1.5|
3,4,0.48|
3,5,2|
3,6,6.4|
3,7,5|
4,0,1.1|
4,1,2.9|
4,2,9|
4,3,1.2|
4,4,4.3|
4,5,7.8|
4,6,5|
4,7,3.6|
5,0,3.6|
5,1,8.9|
5,2,0.093|
5,3,3.5|
5,4,0.63|
5,5,2|
5,6,9.4|
5,7,9|
6,0,1.6|
6,1,7.6|
6,2,4.7|
6,3,6.5|
6,4,2.3|
6,5,5.2|
6,6,7.4|
6,7,4.7|
7,0,7.7|
7,1,0.99|
7,2,0.83|
7,3,8|
7,4,9.1|
7,5,3.9|
7,6,1.3|
7,7,7.2|
];
constraint_x6_x2=[
0,0,3.8|
0,1,7.2|
0,2,9|
0,3,9.9|
0,4,6.5|
0,5,2.5|
0,6,4.7|
0,7,2.9|
1,0,8.6|
1,1,5.5|
1,2,9.7|
1,3,1.5|
1,4,7.7|
1,5,9.2|
1,6,4.3|
1,7,8.1|
2,0,1.8|
2,1,2.7|
2,2,9.5|
2,3,0.15|
2,4,7.4|
2,5,0.22|
2,6,5.9|
2,7,8.6|
3,0,0.99|
3,1,8.5|
3,2,1.3|
3,3,2.9|
3,4,0.87|
3,5,8.9|
3,6,2.8|
3,7,4.6|
4,0,9.1|
4,1,3.6|
4,2,6.4|
4,3,5.7|
4,4,7.5|
4,5,4.7|
4,6,4.2|
4,7,2.7|
5,0,8.1|
5,1,8.9|
5,2,1.4|
5,3,1.1|
5,4,8.3|
5,5,0.54|
5,6,6.5|
5,7,0.61|
6,0,8.2|
6,1,9.5|
6,2,1.8|
6,3,8|
6,4,8.3|
6,5,4.5|
6,6,3.3|
6,7,3|
7,0,4.8|
7,1,3.7|
7,2,9.3|
7,3,2.5|
7,4,7.2|
7,5,1.3|
7,6,5.1|
7,7,9.9|
];
constraint_x6_x5=[
0,0,9.4|
0,1,5.3|
0,2,4|
0,3,7.4|
0,4,8.5|
0,5,2.3|
0,6,8.6|
0,7,4.2|
1,0,0.5|
1,1,8.2|
1,2,0.77|
1,3,6.1|
1,4,2.6|
1,5,0.6|
1,6,2.1|
1,7,0.94|
2,0,6.5|
2,1,0.64|
2,2,9|
2,3,3.4|
2,4,3.4|
2,5,9.5|
2,6,9.7|
2,7,1.1|
3,0,1.3|
3,1,0.36|
3,2,0.71|
3,3,9.8|
3,4,1.2|
3,5,3.5|
3,6,7.6|
3,7,7.5|
4,0,8.8|
4,1,7.9|
4,2,0.98|
4,3,1.6|
4,4,9.7|
4,5,8.6|
4,6,8.8|
4,7,4.9|
5,0,4.7|
5,1,5.9|
5,2,5.7|
5,3,7.9|
5,4,5.6|
5,5,1.1|
5,6,2.4|
5,7,0.88|
6,0,7.1|
6,1,3.4|
6,2,1.7|
6,3,9.5|
6,4,3.2|
6,5,4.5|
6,6,2.3|
6,7,2.3|
7,0,6.1|
7,1,4.9|
7,2,5.7|
7,3,8.7|
7,4,5.1|
7,5,5.9|
7,6,7.3|
7,7,5.2|
];
constraint_x7_x3=[
0,0,0.67|
0,1,6.7|
0,2,3.7|
0,3,7.4|
0,4,1.2|
0,5,3.8|
0,6,7.9|
0,7,3.6|
1,0,9.5|
1,1,2.5|
1,2,9.2|
1,3,4.6|
1,4,2.2|
1,5,0.43|
1,6,1.9|
1,7,6.4|
2,0,2.7|
2,1,9.6|
2,2,2.6|
2,3,8.8|
2,4,1.1|
2,5,0.2|
2,6,1.1|
2,7,1.6|
3,0,4.5|
3,1,1|
3,2,4.3|
3,3,9.4|
3,4,6.6|
3,5,7.1|
3,6,7|
3,7,9.1|
4,0,5.3|
4,1,6.8|
4,2,3.1|
4,3,6.3|
4,4,5.8|
4,5,8.5|
4,6,9.9|
4,7,9.3|
5,0,9.9|
5,1,8.9|
5,2,7.3|
5,3,8.8|
5,4,4.1|
5,5,0.055|
5,6,1.5|
5,7,5.1|
6,0,8.8|
6,1,6.8|
6,2,0.0027|
6,3,8.7|
6,4,1.1|
6,5,3.1|
6,6,7.9|
6,7,7.8|
7,0,2.9|
7,1,3.8|
7,2,8.4|
7,3,6.6|
7,4,6.4|
7,5,8.8|
7,6,0.94|
7,7,6.1|
];
constraint_x7_x6=[
0,0,1.2|
0,1,0.097|
0,2,10|
0,3,6.6|
0,4,3.5|
0,5,9.5|
0,6,0.97|
0,7,8.8|
1,0,7.2|
1,1,0.23|
1,2,1.2|
1,3,5.7|
1,4,7.4|
1,5,2|
1,6,7.8|
1,7,0.33|
2,0,3.7|
2,1,7.5|
2,2,6.1|
2,3,4.3|
2,4,4.1|
2,5,6.6|
2,6,7.8|
2,7,6.7|
3,0,5.8|
3,1,2.5|
3,2,9.7|
3,3,2.8|
3,4,3.9|
3,5,0.89|
3,6,7.2|
3,7,8|
4,0,2|
4,1,3.2|
4,2,7.6|
4,3,7.7|
4,4,1.7|
4,5,5.5|
4,6,7.8|
4,7,6.6|
5,0,6.5|
5,1,5.5|
5,2,4|
5,3,8.9|
5,4,6.5|
5,5,8.3|
5,6,5.8|
5,7,0.11|
6,0,1.1|
6,1,1.9|
6,2,7.4|
6,3,4.7|
6,4,7|
6,5,3.4|
6,6,6.2|
6,7,3|
7,0,1.7|
7,1,7.3|
7,2,3.8|
7,3,4.1|
7,4,9.3|
7,5,8|
7,6,5.2|
7,7,6.1|
];
constraint_x8_x4=[
0,0,2.2|
0,1,3.6|
0,2,9.6|
0,3,6.9|
0,4,0.7|
0,5,6.5|
0,6,7.4|
0,7,6.6|
1,0,4.7|
1,1,6.3|
1,2,0.85|
1,3,1.8|
1,4,0.88|
1,5,5.4|
1,6,7.4|
1,7,2.9|
2,0,5.2|
2,1,3.3|
2,2,0.79|
2,3,5|
2,4,7.8|
2,5,5.5|
2,6,2.1|
2,7,7|
3,0,4.5|
3,1,8.1|
3,2,1.6|
3,3,1.3|
3,4,5.1|
3,5,9.8|
3,6,1.8|
3,7,5.2|
4,0,3|
4,1,1.2|
4,2,2.4|
4,3,9.5|
4,4,4.1|
4,5,7.7|
4,6,1.7|
4,7,8.7|
5,0,6.1|
5,1,6.8|
5,2,9.5|
5,3,8.2|
5,4,9.1|
5,5,3|
5,6,5|
5,7,0.41|
6,0,3.3|
6,1,8.4|
6,2,4.5|
6,3,3.3|
6,4,0.41|
6,5,2.6|
6,6,0.69|
6,7,8.4|
7,0,1.1|
7,1,7.3|
7,2,0.25|
7,3,0.63|
7,4,8.7|
7,5,2.5|
7,6,9.1|
7,7,9.3|
];
constraint_x8_x7=[
0,0,0.98|
0,1,3.7|
0,2,7.5|
0,3,9.3|
0,4,1.9|
0,5,8|
0,6,3.6|
0,7,7.2|
1,0,7.9|
1,1,0.61|
1,2,8.1|
1,3,9.1|
1,4,4.5|
1,5,4.5|
1,6,6.4|
1,7,3.1|
2,0,3.8|
2,1,1.6|
2,2,2.8|
2,3,2.3|
2,4,9.8|
2,5,2.4|
2,6,1.7|
2,7,8.4|
3,0,5.2|
3,1,1.1|
3,2,3|
3,3,0.52|
3,4,6.2|
3,5,9.2|
3,6,0.47|
3,7,7.1|
4,0,5.9|
4,1,1.7|
4,2,4.8|
4,3,3.6|
4,4,6.3|
4,5,8.8|
4,6,4.5|
4,7,5.1|
5,0,6.6|
5,1,1.5|
5,2,5.9|
5,3,1.6|
5,4,7.5|
5,5,8|
5,6,2.2|
5,7,6.4|
6,0,8.9|
6,1,2.6|
6,2,1.1|
6,3,4.9|
6,4,8.1|
6,5,2.1|
6,6,3.2|
6,7,7|
7,0,8.1|
7,1,9.3|
7,2,5|
7,3,4.9|
7,4,1.1|
7,5,5.9|
7,6,0.39|
7,7,8.1|
];
constraint_x9_x5=[
0,0,1|
0,1,1.2|
0,2,3.5|
0,3,8.5|
0,4,5.1|
0,5,2.5|
0,6,9.2|
0,7,4.6|
1,0,9.9|
1,1,3.3|
1,2,4.7|
1,3,3.3|
1,4,3.8|
1,5,4.4|
1,6,2.6|
1,7,5.1|
2,0,1.8|
2,1,1.6|
2,2,0.21|
2,3,2.6|
2,4,3.5|
2,5,3.6|
2,6,3.5|
2,7,7.6|
3,0,0.048|
3,1,9|
3,2,8.1|
3,3,5.8|
3,4,2.9|
3,5,6.4|
3,6,6.3|
3,7,7.6|
4,0,2.4|
4,1,4.6|
4,2,8.9|
4,3,8.1|
4,4,6|
4,5,6.4|
4,6,2.9|
4,7,4.5|
5,0,5.2|
5,1,8.3|
5,2,0.52|
5,3,2.8|
5,4,9.1|
5,5,3.5|
5,6,8.8|
5,7,6.2|
6,0,2.8|
6,1,1.2|
6,2,7.1|
6,3,2.7|
6,4,6.9|
6,5,6.9|
6,6,3.1|
6,7,5.7|
7,0,1|
7,1,2.2|
7,2,4.7|
7,3,2.9|
7,4,5.7|
7,5,7.3|
7,6,4.2|
7,7,3.6|
];
constraint_x10_x6=[
0,0,8|
0,1,0.75|
0,2,5.1|
0,3,1.2|
0,4,4|
0,5,2.4|
0,6,3.1|
0,7,6.3|
1,0,7.2|
1,1,5.8|
1,2,9.2|
1,3,3.8|
1,4,1|
1,5,5.6|
1,6,1.7|
1,7,3.3|
2,0,3.6|
2,1,8.3|
2,2,8.4|
2,3,4.6|
2,4,9.4|
2,5,4.6|
2,6,8.8|
2,7,0.88|
3,0,2.5|
3,1,9.2|
3,2,5.5|
3,3,9.4|
3,4,6.9|
3,5,1.6|
3,6,7.7|
3,7,6.2|
4,0,6|
4,1,7.1|
4,2,2.9|
4,3,7.4|
4,4,6.5|
4,5,4.2|
4,6,0.81|
4,7,2.2|
5,0,6|
5,1,3.4|
5,2,3|
5,3,3.5|
5,4,5.1|
5,5,3.7|
5,6,5.2|
5,7,6.3|
6,0,3.6|
6,1,0.094|
6,2,7.2|
6,3,5.4|
6,4,2|
6,5,5.5|
6,6,9|
6,7,5|
7,0,2.7|
7,1,9.4|
7,2,0.24|
7,3,9.9|
7,4,6.6|
7,5,3.7|
7,6,6.3|
7,7,2.2|
];
constraint_x10_x9=[
0,0,9.9|
0,1,8.8|
0,2,6.3|
0,3,2|
0,4,1.9|
0,5,7.6|
0,6,8.3|
0,7,0.12|
1,0,9.5|
1,1,8.1|
1,2,5.5|
1,3,9.4|
1,4,2.7|
1,5,9.8|
1,6,1.1|
1,7,9.6|
2,0,3|
2,1,2.4|
2,2,5.1|
2,3,2.7|
2,4,6.5|
2,5,6.7|
2,6,1.3|
2,7,2.2|
3,0,0.34|
3,1,5.1|
3,2,5.5|
3,3,0.2|
3,4,9.9|
3,5,8|
3,6,5.8|
3,7,4.8|
4,0,4.7|
4,1,0.44|
4,2,3.1|
4,3,7.6|
4,4,5.5|
4,5,9.1|
4,6,3.3|
4,7,0.31|
5,0,7.5|
5,1,1.6|
5,2,1.3|
5,3,9.3|
5,4,1.5|
5,5,2.7|
5,6,8.6|
5,7,9.5|
6,0,7.8|
6,1,7|
6,2,2.3|
6,3,5.3|
6,4,2.5|
6,5,0.4|
6,6,8.9|
6,7,5.3|
7,0,6.8|
7,1,9.9|
7,2,7.2|
7,3,9.5|
7,4,5.4|
7,5,6.9|
7,6,7.8|
7,7,0.27|
];
constraint_x11_x7=[
0,0,2.1|
0,1,7.6|
0,2,4.7|
0,3,6.1|
0,4,9.5|
0,5,2|
0,6,4.1|
0,7,6.1|
1,0,4.2|
1,1,8.9|
1,2,6|
1,3,0.68|
1,4,1.9|
1,5,5.3|
1,6,9.2|
1,7,6.1|
2,0,8.6|
2,1,4.8|
2,2,4.2|
2,3,1.1|
2,4,8.3|
2,5,9.2|
2,6,7.1|
2,7,0.28|
3,0,1.9|
3,1,4|
3,2,8.9|
3,3,6.7|
3,4,8.6|
3,5,1.8|
3,6,8.2|
3,7,9.3|
4,0,1.7|
4,1,9.8|
4,2,4.9|
4,3,3.7|
4,4,9|
4,5,2.5|
4,6,5.5|
4,7,5.4|
5,0,8.8|
5,1,4.2|
5,2,4.3|
5,3,4.2|
5,4,2.8|
5,5,2.7|
5,6,5.4|
5,7,1.7|
6,0,1|
6,1,3.9|
6,2,9.7|
6,3,1.8|
6,4,9.1|
6,5,2.1|
6,6,7.2|
6,7,0.35|
7,0,8.9|
7,1,2.8|
7,2,4.2|
7,3,9.4|
7,4,7.1|
7,5,8.7|
7,6,9|
7,7,1.7|
];
constraint_x11_x10=[
0,0,6.5|
0,1,0.66|
0,2,5.7|
0,3,8.8|
0,4,4.8|
0,5,4.4|
0,6,6.1|
0,7,9.9|
1,0,1.4|
1,1,5.9|
1,2,7.6|
1,3,8.9|
1,4,4|
1,5,0.21|
1,6,7.9|
1,7,9.8|
2,0,1.4|
2,1,8.9|
2,2,0.57|
2,3,0.49|
2,4,9.1|
2,5,8.4|
2,6,4.1|
2,7,1.3|
3,0,5.2|
3,1,10|
3,2,3.2|
3,3,3.4|
3,4,1.6|
3,5,9.8|
3,6,7.2|
3,7,5.3|
4,0,1.3|
4,1,2|
4,2,2.7|
4,3,6.3|
4,4,6.9|
4,5,5|
4,6,0.62|
4,7,0.22|
5,0,2|
5,1,2.6|
5,2,9.2|
5,3,1.7|
5,4,7|
5,5,3|
5,6,1.5|
5,7,6.6|
6,0,8.5|
6,1,6.6|
6,2,8.9|
6,3,0.12|
6,4,6.2|
6,5,0.15|
6,6,1.7|
6,7,9.6|
7,0,8.2|
7,1,4|
7,2,7.4|
7,3,2.5|
7,4,5.4|
7,5,3.7|
7,6,9.9|
7,7,3.9|
];
constraint_x12_x8=[
0,0,5.1|
0,1,2.3|
0,2,9.7|
0,3,6.7|
0,4,4.5|
0,5,7.3|
0,6,1.8|
0,7,7.8|
1,0,2.7|
1,1,1.5|
1,2,4.6|
1,3,9.1|
1,4,4.3|
1,5,1.9|
1,6,5.2|
1,7,5.9|
2,0,1.4|
2,1,5.9|
2,2,7.2|
2,3,7.1|
2,4,1.2|
2,5,8.3|
2,6,8.9|
2,7,4.5|
3,0,9.9|
3,1,6|
3,2,9.3|
3,3,4.2|
3,4,9.7|
3,5,7.5|
3,6,0.51|
3,7,5.9|
4,0,1.7|
4,1,7.3|
4,2,5.7|
4,3,5.3|
4,4,6.1|
4,5,1.4|
4,6,0.77|
4,7,8.1|
5,0,1.6|
5,1,2.5|
5,2,3.2|
5,3,0.0099|
5,4,9.4|
5,5,1.1|
5,6,1.9|
5,7,8.5|
6,0,1.5|
6,1,1.3|
6,2,0.72|
6,3,3.7|
6,4,5.4|
6,5,8.1|
6,6,1.6|
6,7,1.5|
7,0,7.7|
7,1,3.8|
7,2,3|
7,3,7.2|
7,4,2.6|
7,5,3.3|
7,6,6.2|
7,7,4.7|
];
constraint_x12_x11=[
0,0,1.9|
0,1,3.6|
0,2,4|
0,3,6.9|
0,4,8.8|
0,5,3.8|
0,6,1.1|
0,7,8.3|
1,0,5.2|
1,1,1.1|
1,2,8|
1,3,7|
1,4,8.6|
1,5,9.1|
1,6,7.6|
1,7,1.8|
2,0,1.3|
2,1,6.4|
2,2,3.4|
2,3,8.5|
2,4,9.6|
2,5,9.6|
2,6,0.24|
2,7,9.7|
3,0,9.4|
3,1,1|
3,2,0.4|
3,3,2.8|
3,4,7.2|
3,5,7.2|
3,6,4.5|
3,7,4.2|
4,0,6.5|
4,1,4.2|
4,2,4.5|
4,3,1.8|
4,4,9.8|
4,5,2.1|
4,6,7.1|
4,7,1.1|
5,0,2.2|
5,1,2.3|
5,2,5|
5,3,9.4|
5,4,9|
5,5,6|
5,6,2.3|
5,7,0.28|
6,0,1.8|
6,1,3.4|
6,2,0.015|
6,3,5.6|
6,4,3.3|
6,5,6.4|
6,6,7.4|
6,7,2.5|
7,0,9.7|
7,1,4.8|
7,2,2.3|
7,3,7.5|
7,4,9.4|
7,5,4.3|
7,6,4.9|
7,7,2.2|
];
constraint_x13_x9=[
0,0,5.8|
0,1,8.9|
0,2,6.9|
0,3,4.5|
0,4,0.97|
0,5,8.6|
0,6,5.1|
0,7,0.39|
1,0,9.5|
1,1,9|
1,2,5.1|
1,3,3.1|
1,4,7.5|
1,5,6.5|
1,6,1.1|
1,7,2.4|
2,0,3.2|
2,1,0.17|
2,2,3.5|
2,3,7.6|
2,4,9.4|
2,5,1.9|
2,6,9|
2,7,9.6|
3,0,1.8|
3,1,9.7|
3,2,6.5|
3,3,1.6|
3,4,9|
3,5,7.1|
3,6,6.8|
3,7,6.9|
4,0,4.7|
4,1,6.2|
4,2,5.6|
4,3,6.3|
4,4,5.2|
4,5,4.8|
4,6,2|
4,7,3|
5,0,6.7|
5,1,7.8|
5,2,4.1|
5,3,2.4|
5,4,2.4|
5,5,3.8|
5,6,8.6|
5,7,2.6|
6,0,8.2|
6,1,4.2|
6,2,8.9|
6,3,1|
6,4,3.2|
6,5,4.3|
6,6,6.4|
6,7,3|
7,0,7.9|
7,1,7.2|
7,2,6.5|
7,3,8|
7,4,1.5|
7,5,5.5|
7,6,0.02|
7,7,5.8|
];
constraint_x14_x10=[
0,0,5.4|
0,1,6|
0,2,4.1|
0,3,0.48|
0,4,0.57|
0,5,8.8|
0,6,7.3|
0,7,8|
1,0,1.4|
1,1,4|
1,2,6.5|
1,3,5.1|
1,4,3.1|
1,5,9.7|
1,6,7.2|
1,7,9|
2,0,2.6|
2,1,7.6|
2,2,4.2|
2,3,5|
2,4,4.8|
2,5,4.4|
2,6,5.8|
2,7,7.9|
3,0,9.4|
3,1,8.7|
3,2,1.4|
3,3,3.8|
3,4,9.4|
3,5,4.7|
3,6,6.3|
3,7,4.1|
4,0,9.1|
4,1,6.2|
4,2,2.4|
4,3,1.5|
4,4,7.8|
4,5,7.9|
4,6,4.2|
4,7,0.56|
5,0,3.4|
5,1,0.27|
5,2,7.6|
5,3,6.9|
5,4,7|
5,5,5.2|
5,6,6.5|
5,7,8.4|
6,0,8|
6,1,7.2|
6,2,4|
6,3,9.3|
6,4,1.6|
6,5,8.8|
6,6,3.8|
6,7,1.8|
7,0,6|
7,1,7.4|
7,2,4.4|
7,3,2.6|
7,4,1.7|
7,5,4.9|
7,6,0.16|
7,7,7.4|
];
constraint_x15_x11=[
0,0,3.1|
0,1,4.5|
0,2,0.37|
0,3,7|
0,4,3.4|
0,5,3|
0,6,4.2|
0,7,2.4|
1,0,9.7|
1,1,9.7|
1,2,1.7|
1,3,6.4|
1,4,8.7|
1,5,1.7|
1,6,9.4|
1,7,2.8|
2,0,7.5|
2,1,0.89|
2,2,7.1|
2,3,7.4|
2,4,5.5|
2,5,8.4|
2,6,9|
2,7,4.6|
3,0,6.5|
3,1,0.32|
3,2,4.3|
3,3,7.1|
3,4,8.2|
3,5,7.6|
3,6,6.1|
3,7,8|
4,0,0.93|
4,1,9|
4,2,8.2|
4,3,7.8|
4,4,9.8|
4,5,7.9|
4,6,2.3|
4,7,6.4|
5,0,2.6|
5,1,4.4|
5,2,9.9|
5,3,9.6|
5,4,9.7|
5,5,9.9|
5,6,7.7|
5,7,1|
6,0,4|
6,1,2.2|
6,2,8.3|
6,3,9.1|
6,4,6.7|
6,5,1.9|
6,6,8|
6,7,6.8|
7,0,0.13|
7,1,4.8|
7,2,6.1|
7,3,0.17|
7,4,4.6|
7,5,9.6|
7,6,9.4|
7,7,4.5|
];
constraint_x16_x12=[
0,0,5.3|
0,1,5.7|
0,2,7.6|
0,3,7.2|
0,4,7.9|
0,5,4|
0,6,8|
0,7,4.8|
1,0,4.9|
1,1,0.24|
1,2,3.4|
1,3,7.8|
1,4,5.4|
1,5,4|
1,6,4.2|
1,7,3.2|
2,0,3.1|
2,1,3.7|
2,2,8.7|
2,3,4.7|
2,4,2.7|
2,5,7.7|
2,6,0.38|
2,7,5.5|
3,0,9|
3,1,9.7|
3,2,9.8|
3,3,9.9|
3,4,5.6|
3,5,9.5|
3,6,1.7|
3,7,4.4|
4,0,1.8|
4,1,5.6|
4,2,9.4|
4,3,4|
4,4,8.7|
4,5,4|
4,6,6.7|
4,7,8.1|
5,0,6.4|
5,1,1|
5,2,0.96|
5,3,2.1|
5,4,7.5|
5,5,4.7|
5,6,4.7|
5,7,2|
6,0,8.3|
6,1,8.2|
6,2,6.2|
6,3,2.6|
6,4,6.9|
6,5,4.5|
6,6,5.4|
6,7,5.4|
7,0,7|
7,1,5.6|
7,2,4.3|
7,3,3.3|
7,4,2|
7,5,2.6|
7,6,4|
7,7,2.1|
];
constraint_x17_x13=[
0,0,9.4|
0,1,0.047|
0,2,4.7|
0,3,4.3|
0,4,3.7|
0,5,8.4|
0,6,0.99|
0,7,2.1|
1,0,9.6|
1,1,6|
1,2,4|
1,3,3.4|
1,4,6.3|
1,5,8.1|
1,6,1.1|
1,7,1.5|
2,0,8|
2,1,2.1|
2,2,8.3|
2,3,1.5|
2,4,6.3|
2,5,7.2|
2,6,3.1|
2,7,1|
3,0,7.7|
3,1,8.4|
3,2,6.1|
3,3,7|
3,4,5.2|
3,5,0.82|
3,6,4.7|
3,7,7|
4,0,0.57|
4,1,6.8|
4,2,4.7|
4,3,2.9|
4,4,3.7|
4,5,6.4|
4,6,8.9|
4,7,1.9|
5,0,3.9|
5,1,7|
5,2,2.2|
5,3,7.2|
5,4,3.1|
5,5,0.95|
5,6,3|
5,7,5.5|
6,0,9.9|
6,1,7|
6,2,5|
6,3,6|
6,4,8.1|
6,5,6.8|
6,6,4.8|
6,7,5|
7,0,8.7|
7,1,3.6|
7,2,2.1|
7,3,5.9|
7,4,0.8|
7,5,6.6|
7,6,1.4|
7,7,4.4|
];
constraint_x18_x14=[
0,0,0.71|
0,1,8.2|
0,2,8|
0,3,2.4|
0,4,7.9|
0,5,8.3|
0,6,0.87|
0,7,1.8|
1,0,6.6|
1,1,8|
1,2,2.6|
1,3,1.5|
1,4,0.87|
1,5,5.8|
1,6,2.9|
1,7,2.5|
2,0,9.8|
2,1,5.4|
2,2,0.81|
2,3,3.2|
2,4,6.8|
2,5,3|
2,6,7.6|
2,7,6.8|
3,0,5.7|
3,1,5.7|
3,2,9.4|
3,3,3.6|
3,4,5.9|
3,5,7.1|
3,6,3.7|
3,7,8.4|
4,0,7.5|
4,1,3.1|
4,2,7.3|
4,3,4.8|
4,4,9.5|
4,5,1.1|
4,6,1.8|
4,7,4.9|
5,0,3.3|
5,1,4.2|
5,2,9.9|
5,3,1.4|
5,4,9.3|
5,5,5.1|
5,6,10|
5,7,7.6|
6,0,1.8|
6,1,1.1|
6,2,7.8|
6,3,3.5|
6,4,3.4|
6,5,0.72|
6,6,3.8|
6,7,8.2|
7,0,2.8|
7,1,3.6|
7,2,7.1|
7,3,2.2|
7,4,1.7|
7,5,6.5|
7,6,7.2|
7,7,9.4|
];
constraint_x1_y1=[
0,0,2.8|
0,1,7.9|
0,2,9.7|
0,3,1.9|
0,4,6.4|
0,5,0.33|
0,6,4.1|
0,7,0.59|
1,0,2.8|
1,1,5.3|
1,2,7.1|
1,3,1.6|
1,4,8.6|
1,5,6.9|
1,6,4.5|
1,7,1.8|
2,0,7.6|
2,1,0.72|
2,2,6.4|
2,3,4.6|
2,4,4.3|
2,5,6.6|
2,6,8.3|
2,7,3.7|
3,0,0.11|
3,1,4.9|
3,2,0.64|
3,3,7.3|
3,4,1.5|
3,5,2.3|
3,6,0.68|
3,7,4.8|
4,0,7.6|
4,1,0.36|
4,2,6.7|
4,3,8.1|
4,4,6.8|
4,5,6.5|
4,6,3.8|
4,7,4.2|
5,0,6.4|
5,1,3.5|
5,2,6.3|
5,3,2.5|
5,4,9.2|
5,5,2.4|
5,6,9.2|
5,7,5.3|
6,0,6.6|
6,1,3.8|
6,2,6.2|
6,3,2.3|
6,4,1.1|
6,5,6.3|
6,6,7.6|
6,7,7.9|
7,0,5.7|
7,1,6.7|
7,2,5.4|
7,3,0.45|
7,4,4.9|
7,5,5.2|
7,6,2.3|
7,7,4.9|
];
constraint_x2_y2=[
0,0,6.8|
0,1,6.2|
0,2,3.4|
0,3,5.6|
0,4,5.6|
0,5,4.5|
0,6,8.6|
0,7,4.7|
1,0,5.7|
1,1,6.3|
1,2,6.9|
1,3,7.6|
1,4,1.7|
1,5,6.9|
1,6,8.6|
1,7,3.1|
2,0,7.7|
2,1,0.75|
2,2,0.93|
2,3,6.7|
2,4,1.3|
2,5,7.5|
2,6,4.5|
2,7,8.5|
3,0,9.4|
3,1,1.2|
3,2,7.1|
3,3,0.071|
3,4,5.9|
3,5,3.6|
3,6,4.1|
3,7,5.5|
4,0,5.3|
4,1,2.9|
4,2,0.67|
4,3,5.7|
4,4,1.9|
4,5,0.04|
4,6,2.7|
4,7,0.2|
5,0,4.6|
5,1,9.2|
5,2,7.3|
5,3,7|
5,4,5.2|
5,5,1.1|
5,6,4.6|
5,7,4.2|
6,0,3.3|
6,1,8.1|
6,2,2.4|
6,3,3.2|
6,4,0.17|
6,5,1.8|
6,6,0.038|
6,7,1.6|
7,0,1.1|
7,1,4.5|
7,2,0.3|
7,3,5.9|
7,4,7|
7,5,2.4|
7,6,3.5|
7,7,1.7|
];
constraint_x3_y3=[
0,0,1.3|
0,1,3.5|
0,2,1.5|
0,3,5.1|
0,4,9.8|
0,5,0.07|
0,6,0.41|
0,7,9.2|
1,0,9.9|
1,1,1.2|
1,2,7.5|
1,3,7.7|
1,4,7.1|
1,5,5.9|
1,6,4.8|
1,7,2.2|
2,0,5.3|
2,1,9.7|
2,2,5.1|
2,3,5.7|
2,4,6.5|
2,5,2.9|
2,6,10|
2,7,8.4|
3,0,7.6|
3,1,0.73|
3,2,3.2|
3,3,5.4|
3,4,7.8|
3,5,5.8|
3,6,5.6|
3,7,7.2|
4,0,0.24|
4,1,0.16|
4,2,5.5|
4,3,1.9|
4,4,1.7|
4,5,8.2|
4,6,5.5|
4,7,4.1|
5,0,7.4|
5,1,1.1|
5,2,3|
5,3,8.1|
5,4,1.2|
5,5,4.2|
5,6,1.2|
5,7,3.4|
6,0,4|
6,1,2.3|
6,2,3.6|
6,3,1|
6,4,1.5|
6,5,3.7|
6,6,2.9|
6,7,7.7|
7,0,3.3|
7,1,1.1|
7,2,5.7|
7,3,5.2|
7,4,9.9|
7,5,2.6|
7,6,5.1|
7,7,1.5|
];
constraint_x4_y4=[
0,0,0.033|
0,1,2.6|
0,2,5.2|
0,3,0.47|
0,4,5.7|
0,5,9.4|
0,6,6.9|
0,7,6.8|
1,0,1.8|
1,1,5.5|
1,2,5.6|
1,3,9.6|
1,4,8.2|
1,5,4.4|
1,6,4.9|
1,7,0.21|
2,0,7.4|
2,1,3.7|
2,2,7.9|
2,3,4.9|
2,4,6.5|
2,5,6.2|
2,6,5.3|
2,7,9.7|
3,0,0.64|
3,1,0.65|
3,2,1|
3,3,9.3|
3,4,0.71|
3,5,1.4|
3,6,2.7|
3,7,6.4|
4,0,0.73|
4,1,8.4|
4,2,8.9|
4,3,0.021|
4,4,4.1|
4,5,7|
4,6,3.3|
4,7,9.9|
5,0,1.6|
5,1,4.1|
5,2,7.1|
5,3,0.7|
5,4,2.2|
5,5,4.5|
5,6,0.51|
5,7,5.2|
6,0,9.8|
6,1,0.57|
6,2,0.55|
6,3,3.4|
6,4,1.2|
6,5,7.4|
6,6,8.7|
6,7,1.9|
7,0,5.1|
7,1,5|
7,2,6.5|
7,3,6.1|
7,4,2.6|
7,5,6.1|
7,6,5.9|
7,7,3|
];
constraint_x5_y5=[
0,0,5.2|
0,1,7.2|
0,2,0.18|
0,3,0.067|
0,4,1.2|
0,5,6.3|
0,6,0.062|
0,7,3.3|
1,0,8|
1,1,7.7|
1,2,9.3|
1,3,1.1|
1,4,4.9|
1,5,5.8|
1,6,2.4|
1,7,10|
2,0,0.89|
2,1,0.0065|
2,2,1.9|
2,3,7|
2,4,0.86|
2,5,2.7|
2,6,1.4|
2,7,7.1|
3,0,6.4|
3,1,6.8|
3,2,1.3|
3,3,5.7|
3,4,8.2|
3,5,6.9|
3,6,0.8|
3,7,8.9|
4,0,7.4|
4,1,6.5|
4,2,3.3|
4,3,1.1|
4,4,1.5|
4,5,4.4|
4,6,6.9|
4,7,9.9|
5,0,7.2|
5,1,10|
5,2,1.3|
5,3,1.1|
5,4,7.5|
5,5,9.2|
5,6,0.87|
5,7,8.3|
6,0,0.76|
6,1,8.8|
6,2,0.87|
6,3,1.1|
6,4,4.7|
6,5,4.5|
6,6,2.4|
6,7,2.9|
7,0,1.6|
7,1,6.1|
7,2,4.4|
7,3,5.1|
7,4,2.4|
7,5,6.5|
7,6,2.3|
7,7,3.2|
];
constraint_x6_y6=[
0,0,6.8|
0,1,1|
0,2,7.5|
0,3,9.8|
0,4,9.1|
0,5,4.7|
0,6,5.1|
0,7,0.71|
1,0,6.8|
1,1,1.1|
1,2,8.4|
1,3,4.2|
1,4,4.7|
1,5,5.1|
1,6,5.6|
1,7,8.3|
2,0,4.2|
2,1,0.22|
2,2,6.3|
2,3,1.9|
2,4,5.1|
2,5,2.3|
2,6,2.6|
2,7,9.9|
3,0,4.2|
3,1,1.5|
3,2,2.2|
3,3,9|
3,4,5.6|
3,5,9.5|
3,6,5.8|
3,7,6.9|
4,0,3.1|
4,1,5.6|
4,2,1.5|
4,3,7.9|
4,4,2.2|
4,5,8.9|
4,6,2.5|
4,7,4.8|
5,0,7.3|
5,1,9.3|
5,2,6.5|
5,3,9.9|
5,4,0.96|
5,5,6.7|
5,6,6.3|
5,7,9.9|
6,0,3.7|
6,1,1.1|
6,2,8.4|
6,3,6.2|
6,4,7.8|
6,5,0.21|
6,6,8.1|
6,7,0.27|
7,0,6.8|
7,1,2.4|
7,2,7|
7,3,3.5|
7,4,5.7|
7,5,7.7|
7,6,3.8|
7,7,3.2|
];
constraint_x7_y7=[
0,0,0.29|
0,1,6.4|
0,2,2.4|
0,3,5.2|
0,4,8.5|
0,5,8|
0,6,5.5|
0,7,3.8|
1,0,9.5|
1,1,5.9|
1,2,9.4|
1,3,7.9|
1,4,5.2|
1,5,8.8|
1,6,5|
1,7,0.0015|
2,0,4.1|
2,1,4.1|
2,2,3.1|
2,3,4.7|
2,4,9.4|
2,5,6.6|
2,6,8.9|
2,7,4.7|
3,0,2.7|
3,1,8.7|
3,2,3.3|
3,3,4.9|
3,4,5.1|
3,5,3.5|
3,6,6.2|
3,7,3.9|
4,0,8.9|
4,1,7.9|
4,2,6|
4,3,8.8|
4,4,2.4|
4,5,8|
4,6,1.6|
4,7,0.95|
5,0,9.4|
5,1,3.1|
5,2,0.64|
5,3,0.96|
5,4,6.9|
5,5,9.2|
5,6,2.3|
5,7,0.91|
6,0,3.4|
6,1,6.8|
6,2,6.8|
6,3,8.5|
6,4,9.5|
6,5,5.8|
6,6,7.5|
6,7,9.4|
7,0,9.1|
7,1,7.3|
7,2,4.4|
7,3,7.7|
7,4,4.4|
7,5,0.074|
7,6,5.4|
7,7,9.6|
];
constraint_x8_y8=[
0,0,9.9|
0,1,5.6|
0,2,2.4|
0,3,5.5|
0,4,7.1|
0,5,0.4|
0,6,6.1|
0,7,3.3|
1,0,5.4|
1,1,9.4|
1,2,6.3|
1,3,3.9|
1,4,4.8|
1,5,9.6|
1,6,4|
1,7,9.3|
2,0,6|
2,1,3.6|
2,2,6.8|
2,3,7.3|
2,4,1.5|
2,5,3.3|
2,6,0.09|
2,7,9|
3,0,2.1|
3,1,3.8|
3,2,4.6|
3,3,3.4|
3,4,8.8|
3,5,6.3|
3,6,6.5|
3,7,5.9|
4,0,3.4|
4,1,5.7|
4,2,5.7|
4,3,2.7|
4,4,7.2|
4,5,8.8|
4,6,2|
4,7,8|
5,0,1.5|
5,1,7.3|
5,2,7.8|
5,3,5.7|
5,4,4.4|
5,5,7.1|
5,6,2.1|
5,7,0.11|
6,0,9|
6,1,7.6|
6,2,3.7|
6,3,5.1|
6,4,4.5|
6,5,0.23|
6,6,7.5|
6,7,0.57|
7,0,6.2|
7,1,9.2|
7,2,2.1|
7,3,3.4|
7,4,0.89|
7,5,7.8|
7,6,6.6|
7,7,1.8|
];
initial_distribution_y1=[0.17,0.2,0.017,0.004,0.16,0.21,0.19,0.041];
initial_distribution_y2=[0.12,0.16,0.08,0.084,0.13,0.14,0.19,0.1];
initial_distribution_y3=[0.2,0.2,0.078,0.18,0.09,0.04,0.037,0.17];
initial_distribution_y4=[0.13,0.17,0.095,0.13,0.11,0.17,0.13,0.076];
initial_distribution_y5=[0.13,0.21,0.25,0.1,0.14,0.037,0.11,0.033];
initial_distribution_y6=[0.0042,0.015,0.19,0.23,0.026,0.24,0.16,0.14];
initial_distribution_y7=[0.087,0.24,0.14,0.11,0.15,0.027,0.062,0.19];
initial_distribution_y8=[0.1,0.16,0.2,0.034,0.17,0.17,0.055,0.11];
transition_y1=[
0.28,0.076,0.0045,0.0066,0.14,0.25,0.13,0.11|
0.26,0.04,0.15,0.0071,0.0033,0.24,0.15,0.15|
0.24,0.015,0.061,0.072,0.24,0.13,0.1,0.14|
0.22,0.15,0.11,0.0065,0.059,0.065,0.2,0.18|
0.12,0.14,0.18,0.096,0.25,0.12,0.039,0.065|
0.022,0.24,0.18,0.1,0.046,0.087,0.22,0.1|
0.088,0.18,0.12,0.19,0.059,0.085,0.14,0.14|
0.19,0.061,0.18,0.15,0.18,0.059,0.16,0.01|
];
transition_y2=[
0.13,0.039,0.037,0.066,0.25,0.13,0.15,0.2|
0.036,0.14,0.12,0.11,0.2,0.067,0.2,0.13|
0.1,0.32,0.04,0.097,0.063,0.3,0.056,0.015|
0.068,0.18,0.0088,0.21,0.11,0.26,0.15,0.015|
0.12,0.14,0.18,0.19,0.13,0.052,0.0083,0.17|
0.066,0.14,0.15,0.11,0.14,0.17,0.16,0.065|
0.14,0.058,0.27,0.0052,0.11,0.032,0.27,0.12|
0.16,0.039,0.19,0.036,0.18,0.13,0.0049,0.26|
];
transition_y3=[
0.1,0.096,0.026,0.11,0.17,0.093,0.065,0.34|
0.14,0.055,0.16,0.1,0.085,0.14,0.17,0.15|
0.18,0.16,0.13,0.17,0.18,0.0073,0.046,0.12|
0.098,0.25,0.012,0.3,0.07,0.17,0.066,0.027|
0.2,0.22,0.2,0.11,0.078,0.15,0.01,0.028|
0.055,0.2,0.11,0.19,0.17,0.044,0.12,0.11|
0.19,0.11,0.16,0.21,0.028,0.14,0.078,0.085|
0.019,0.076,0.14,0.15,0.13,0.17,0.17,0.15|
];
transition_y4=[
0.058,0.14,0.13,0.2,0.19,0.15,0.055,0.081|
0.26,0.19,0.057,0.14,0.13,0.079,0.0079,0.13|
0.18,0.19,0.05,0.18,0.11,0.059,0.18,0.057|
0.089,0.18,0.19,0.15,0.1,0.039,0.17,0.082|
0.16,0.15,0.018,0.19,0.19,0.081,0.18,0.037|
0.02,0.04,0.11,0.0078,0.32,0.019,0.14,0.35|
0.042,0.16,0.21,0.016,0.17,0.2,0.19,0.0079|
0.091,0.15,0.14,0.12,0.2,0.0051,0.16,0.13|
];
transition_y5=[
0.096,0.089,0.096,0.28,0.0034,0.0081,0.15,0.28|
0.27,0.073,0.028,0.19,0.07,0.097,0.21,0.063|
0.23,0.22,0.12,0.28,0.074,0.0092,0.059,0.0046|
0.091,0.092,0.16,0.099,0.21,0.2,0.044,0.1|
0.07,0.19,0.04,0.16,0.1,0.086,0.074,0.27|
0.052,0.057,0.11,0.22,0.21,0.19,0.096,0.054|
0.015,0.068,0.042,0.14,0.32,0.26,0.031,0.12|
0.011,0.14,0.24,0.079,0.2,0.07,0.07,0.19|
];
transition_y6=[
0.25,0.022,0.0093,0.043,0.11,0.17,0.18,0.22|
0.19,0.12,0.053,0.071,0.21,0.11,0.078,0.16|
0.088,0.018,0.13,0.082,0.011,0.32,0.046,0.3|
0.1,0.13,0.057,0.18,0.05,0.22,0.21,0.055|
0.015,0.1,0.14,0.085,0.16,0.14,0.14,0.23|
0.09,0.17,0.14,0.062,0.22,0.16,0.063,0.098|
0.031,0.18,0.14,0.18,0.014,0.24,0.052,0.16|
0.11,0.25,0.14,0.068,0.064,0.02,0.25,0.11|
];
transition_y7=[
0.1,0.12,0.2,0.11,0.055,0.2,0.028,0.17|
0.18,0.25,0.19,0.16,0.1,0.039,0.048,0.04|
0.22,0.004,0.13,0.23,0.014,0.045,0.23,0.13|
0.16,0.14,0.12,0.066,0.12,0.17,0.1,0.12|
0.068,0.048,0.21,0.054,0.21,0.26,0.11,0.042|
0.0059,0.24,0.15,0.18,0.039,0.076,0.12,0.18|
0.23,0.026,0.1,0.13,0.14,0.055,0.16,0.16|
0.15,0.0066,0.26,0.076,0.0035,0.14,0.26,0.1|
];
transition_y8=[
0.1,0.17,0.034,0.2,0.13,0.14,0.048,0.19|
0.2,0.29,0.047,0.022,0.038,0.26,0.13,0.02|
0.26,0.088,0.096,0.11,0.012,0.0055,0.15,0.28|
0.041,0.13,0.16,0.15,0.029,0.22,0.17,0.1|
0.12,0.12,0.013,0.19,0.059,0.19,0.18,0.12|
0.012,0.23,0.045,0.14,0.12,0.13,0.18,0.14|
0.066,0.14,0.2,0.13,0.024,0.085,0.14,0.22|
0.14,0.13,0.19,0.012,0.16,0.051,0.24,0.082|
];
